33D32945 STP File, STP Format Version 1.0

SECTION Comment
Name    "i080-314"
Creator "Cees Duin"
Remark  "Incidence graph"
END

SECTION Graph
Nodes 80
Edges 350
E 1 11 299
E 1 25 202
E 1 40 201
E 1 42 198
E 1 46 189
E 1 51 203
E 1 57 201
E 1 68 200
E 1 80 205
E 2 19 296
E 2 26 197
E 2 31 201
E 2 42 202
E 2 56 199
E 2 63 195
E 3 21 193
E 3 40 188
E 3 43 203
E 3 59 198
E 3 60 197
E 3 73 199
E 4 20 299
E 4 32 192
E 4 51 208
E 4 52 196
E 4 60 193
E 4 73 204
E 4 74 192
E 5 14 306
E 5 22 200
E 5 33 197
E 5 40 200
E 5 54 202
E 5 64 205
E 5 69 206
E 5 72 200
E 5 75 200
E 6 11 303
E 6 19 301
E 6 33 200
E 6 46 200
E 6 50 203
E 6 51 196
E 6 54 201
E 6 55 203
E 6 62 204
E 6 74 209
E 6 77 195
E 7 24 204
E 7 51 201
E 7 58 208
E 7 62 209
E 7 67 196
E 7 74 207
E 7 75 198
E 7 76 203
E 8 32 199
E 8 45 193
E 8 47 198
E 8 49 204
E 8 58 202
E 8 61 194
E 8 72 201
E 8 73 197
E 8 77 197
E 9 16 304
E 9 37 194
E 9 40 205
E 9 50 195
E 9 61 196
E 9 64 186
E 9 66 197
E 10 36 195
E 10 39 206
E 10 40 195
E 10 41 206
E 10 56 196
E 10 63 200
E 10 66 204
E 10 74 191
E 10 80 199
E 11 21 190
E 11 30 200
E 11 33 200
E 11 58 206
E 11 68 197
E 11 74 192
E 11 79 193
E 12 16 296
E 12 30 195
E 12 34 195
E 12 43 201
E 12 52 208
E 12 53 206
E 12 59 210
E 12 64 188
E 12 67 204
E 12 74 201
E 12 75 201
E 12 77 204
E 13 14 296
E 13 19 290
E 13 31 211
E 13 47 197
E 13 52 201
E 13 54 196
E 13 58 198
E 13 60 195
E 13 77 196
E 14 15 292
E 14 17 300
E 14 28 198
E 14 35 202
E 14 36 196
E 14 38 188
E 14 42 199
E 14 44 198
E 14 58 202
E 14 79 197
E 15 19 299
E 15 20 302
E 15 25 198
E 15 31 188
E 15 32 196
E 15 44 192
E 15 47 204
E 15 75 196
E 15 76 204
E 16 29 209
E 16 36 201
E 16 40 199
E 16 52 198
E 16 58 199
E 16 59 192
E 16 75 195
E 16 77 203
E 17 18 300
E 17 27 197
E 17 29 193
E 17 40 195
E 17 61 195
E 17 70 195
E 17 77 202
E 18 28 204
E 18 52 196
E 18 61 203
E 19 29 196
E 19 30 200
E 19 40 193
E 19 42 197
E 19 43 196
E 19 65 194
E 19 70 199
E 19 72 204
E 20 34 199
E 21 22 104
E 21 31 98
E 21 39 97
E 21 46 104
E 21 53 98
E 21 56 96
E 21 58 103
E 21 64 90
E 21 80 95
E 22 40 97
E 22 49 108
E 22 62 96
E 23 27 97
E 23 30 110
E 23 40 103
E 23 42 102
E 23 43 95
E 23 44 101
E 23 54 94
E 23 58 98
E 23 62 108
E 23 65 102
E 23 72 107
E 23 78 103
E 24 54 92
E 24 64 101
E 24 70 92
E 24 76 91
E 24 77 92
E 25 28 102
E 25 29 99
E 25 42 100
E 25 48 95
E 25 56 99
E 25 64 104
E 26 32 104
E 26 43 96
E 26 59 101
E 27 38 104
E 27 39 103
E 27 40 103
E 27 43 100
E 27 46 102
E 27 49 92
E 27 54 93
E 27 66 107
E 27 72 103
E 28 37 103
E 28 40 90
E 28 41 91
E 28 50 102
E 28 59 96
E 28 60 104
E 28 69 98
E 28 79 105
E 29 37 98
E 29 38 105
E 29 49 101
E 29 55 98
E 29 61 107
E 29 62 95
E 29 71 107
E 30 45 91
E 30 52 102
E 30 63 93
E 30 64 99
E 30 73 100
E 30 76 97
E 31 34 96
E 31 44 106
E 31 50 102
E 31 52 102
E 31 55 97
E 31 66 98
E 31 70 105
E 31 76 102
E 31 80 96
E 32 40 100
E 32 41 101
E 32 43 96
E 32 58 101
E 32 70 93
E 33 37 93
E 33 39 102
E 33 42 94
E 33 45 107
E 33 54 100
E 33 62 101
E 33 64 97
E 33 65 98
E 33 71 84
E 34 38 101
E 34 41 102
E 34 55 102
E 34 57 98
E 34 60 107
E 34 62 101
E 34 73 109
E 34 78 99
E 35 45 98
E 35 47 97
E 35 50 97
E 35 51 97
E 35 59 97
E 35 67 100
E 36 40 101
E 36 64 104
E 36 78 99
E 37 41 96
E 37 44 100
E 37 64 102
E 38 44 92
E 38 46 100
E 38 73 99
E 38 77 96
E 38 80 96
E 39 45 102
E 39 70 107
E 39 75 102
E 39 77 101
E 40 41 89
E 40 73 99
E 40 77 100
E 40 80 97
E 41 49 98
E 42 52 98
E 42 72 94
E 42 75 105
E 42 79 98
E 43 61 109
E 43 65 99
E 43 68 103
E 43 79 92
E 43 80 90
E 44 71 98
E 44 75 102
E 45 52 95
E 45 70 96
E 45 75 93
E 45 76 104
E 46 49 92
E 46 60 93
E 46 61 92
E 46 78 98
E 47 52 95
E 47 64 102
E 47 65 101
E 47 72 98
E 48 52 99
E 48 76 101
E 49 60 96
E 49 69 95
E 49 80 97
E 50 68 98
E 50 76 92
E 51 52 101
E 51 53 100
E 51 78 96
E 53 63 99
E 53 66 102
E 53 78 107
E 54 72 95
E 56 67 97
E 56 69 101
E 56 73 102
E 57 59 98
E 57 77 98
E 58 62 108
E 58 63 97
E 58 71 100
E 58 79 99
E 59 65 103
E 60 78 102
E 60 80 106
E 61 62 97
E 61 64 100
E 61 70 105
E 62 78 93
E 62 79 106
E 62 80 101
E 63 65 101
E 63 74 94
E 63 79 102
E 64 67 96
E 65 67 97
E 66 69 94
E 66 73 99
E 67 76 102
E 68 70 104
E 68 71 98
E 69 74 106
E 72 73 106
E 74 80 100
E 75 77 100
E 76 78 106
END

SECTION Terminals
Terminals 20
T 1
T 2
T 3
T 4
T 5
T 6
T 7
T 8
T 9
T 10
T 11
T 12
T 13
T 14
T 15
T 16
T 17
T 18
T 19
T 20
END

EOF
